(set-logic ALL)
(declare-fun i1 () Int)
(declare-fun it373 () Int)
(declare-fun i2 () Int)
(declare-fun it374 () Int)
(declare-fun i3 () Int)
(declare-fun it375 () Int)
(declare-fun i4 () Int)
(declare-fun it376 () Int)
(declare-fun it377 () Int)
(declare-fun i5 () Int)
(declare-fun i6 () Int)
(declare-fun it378 () Int)
(declare-fun it385 () Int)
(declare-fun it386 () Int)
(declare-fun it387 () Int)
(declare-fun it388 () Int)
(declare-fun it389 () Int)
(declare-fun it390 () Int)
(declare-fun it391 () Int)
(declare-fun it392 () Int)
(declare-fun it393 () Int)
(declare-fun it394 () Int)
(declare-fun it395 () Int)
(declare-fun it396 () Int)
(declare-fun it43 () Int)
(declare-fun it399 () Int)
(declare-fun it400 () Int)
(declare-fun it401 () Int)
(declare-fun it402 () Int)
(declare-fun it403 () Int)
(declare-fun it404 () Int)
(assert (= (+ i1 (- 1)) 0))
(assert (= (+ it373 (- 2)) 0))
(assert (= (+ it374 (* i2 (- 1)) (- 1)) 0))
(assert (= (+ it375 (* i3 (- 1))) 0))
(assert (= (+ it376 (* i4 (- 1))) 0))
(assert (= (+ (* i5 (- 1)) it377) 0))
(assert (= (+ it378 (* i6 (- 1))) 0))
(assert (and (= (+ it373 (- 2)) 0) (>= (+ it375 (- 3)) 0)))
(assert (= (+ it385 (- 5)) 0))
(assert (= (+ (* it374 (- 1)) it386 (- 2)) 0))
(assert (= (+ it387 (* it375 (- 1))) 0))
(assert (= it388 0))
(assert (= (+ it389 (* it377 (- 1))) 0))
(assert (= (+ it390 (* it378 (- 1))) 0))
(assert (and (>= (+ it387 (* it388 (- 1)) (- 2)) 0) (= (+ it385 (- 5)) 0)))
(assert (= (+ it391 (- 7)) 0))
(assert (= (+ it392 (* it386 (- 1)) (- 2)) 0))
(assert (= (+ (* it387 (- 1)) it393) 0))
(assert (= (+ it394 (* it388 (- 1))) 0))
(assert (= it395 0))
(assert (= (+ (* it390 (- 1)) it396) 0))
(assert (let ((a!1 (>= (+ (+ (* it394 (- 1)) (* it395 (- 2)) it393) (- 3)) 0))
      (a!2 (>= (+ (+ (* it394 (- 1)) (* it395 (- 2)) it393) (- 4)) 0))
      (a!3 (+ (* (exp 2 (+ it43 (- 1))) (+ 0 (- 2)))
              (+ 0 (* it394 (- 1)))
              (* (exp 2 (+ it43 (- 1))) (+ 0 it395) (+ 0 (- 2)))
              (+ 0 it393))))
  (and (>= (+ (* it391 (- 1)) 7) 0)
       a!1
       (>= (+ it391 (- 7)) 0)
       a!2
       (>= (+ a!3 (+ 0 (- 1))) (+ 0 0))
       (>= (+ it43 (- 1)) 0)
       (>= (+ a!3 (+ 0 (- 2))) (+ 0 0)))))
(assert (= (+ (* it391 (- 1)) it399) 0))
(assert (= (+ (* it43 (- 6)) it400 (* it392 (- 1))) 0))
(assert (= (+ it401 (* it393 (- 1))) 0))
(assert (= (+ (* it394 (- 1)) it402) 0))
(assert (= (+ (+ 0 it403)
      (* (exp 2 it43) (+ 0 (- 1)))
      (* (exp 2 it43) (+ 0 it395) (+ 0 (- 1)))
      (+ 0 1))
   (+ 0 0)))
(assert (let ((a!1 (+ (* (exp 2 (+ it43 (- 1))) (+ 0 (- 2)))
              (+ 0 it404)
              (* (exp 2 (+ it43 (- 1))) (+ 0 it395) (+ 0 (- 2)))
              (+ 0 1))))
  (= a!1 (+ 0 0))))
(assert (let ((a!1 (>= (+ (+ (* it403 (- 2)) it401 (* it402 (- 1))) (- 3)) 0))
      (a!2 (>= (+ (+ (* it403 (- 2)) it401 (* it402 (- 1))) (- 4)) 0)))
  (and (>= (+ it399 (- 7)) 0)
       (<= (+ (* it403 2) 4) 0)
       a!1
       (>= (+ (* it399 (- 1)) 7) 0)
       a!2)))
(check-sat)
